(declare-fun var0 () String)
(assert (RegexIn var0 (RegexConcat (RegexPlus (RegexUnion (Str2Reg "&&") (Str2Reg "''"))) (RegexConcat (RegexPlus (RegexStar (Str2Reg "%%%"))) (RegexConcat (RegexUnion (RegexUnion (Str2Reg "\"") (Str2Reg "##")) (RegexStar (Str2Reg "$$"))) (RegexConcat (RegexPlus (RegexStar (Str2Reg "!!!"))) (RegexConcat (RegexUnion (RegexUnion (Str2Reg "XXX") (Str2Reg "YY")) (RegexStar (Str2Reg "ZZ"))) (RegexConcat (RegexPlus (RegexStar (Str2Reg "WW"))) (RegexConcat (RegexPlus (RegexPlus (Str2Reg "VVV"))) (RegexConcat (RegexStar (RegexUnion (Str2Reg "TTT") (Str2Reg "UUU"))) (RegexConcat (RegexStar (RegexPlus (Str2Reg "S"))) (RegexConcat (RegexStar (RegexUnion (Str2Reg "QQ") (Str2Reg "RRR"))) (RegexConcat (RegexStar (RegexUnion (Str2Reg "O") (Str2Reg "P"))) (RegexConcat (RegexPlus (RegexPlus (Str2Reg "N"))) (RegexConcat (RegexUnion (RegexUnion (Str2Reg "KKK") (Str2Reg "L")) (RegexPlus (Str2Reg "MM"))) (RegexConcat (RegexUnion (RegexPlus (Str2Reg "II")) (RegexStar (Str2Reg "JJ"))) (RegexConcat (RegexStar (RegexPlus (Str2Reg "HHH"))) (RegexConcat (RegexStar (RegexStar (Str2Reg "GG"))) (RegexConcat (RegexPlus (RegexUnion (Str2Reg "EE") (Str2Reg "FF"))) (RegexConcat (RegexPlus (RegexPlus (Str2Reg "D"))) (RegexConcat (RegexUnion (RegexStar (Str2Reg "BB")) (RegexPlus (Str2Reg "CC"))) (RegexConcat (RegexStar (RegexStar (Str2Reg "AA"))) (RegexConcat (RegexUnion (RegexPlus (Str2Reg "yyy")) (RegexPlus (Str2Reg "zzz"))) (RegexConcat (RegexPlus (RegexUnion (Str2Reg "www") (Str2Reg "xx"))) (RegexConcat (RegexUnion (RegexUnion (Str2Reg "tt") (Str2Reg "uuu")) (RegexPlus (Str2Reg "vv"))) (RegexConcat (RegexPlus (RegexUnion (Str2Reg "rrr") (Str2Reg "ss"))) (RegexConcat (RegexPlus (RegexStar (Str2Reg "qq"))) (RegexConcat (RegexStar (RegexPlus (Str2Reg "ppp"))) (RegexConcat (RegexStar (RegexUnion (Str2Reg "n") (Str2Reg "o"))) (RegexConcat (RegexUnion (RegexPlus (Str2Reg "kkk")) (RegexUnion (Str2Reg "l") (Str2Reg "mm"))) (RegexConcat (RegexPlus (RegexStar (Str2Reg "j"))) (RegexConcat (RegexUnion (RegexStar (Str2Reg "h")) (RegexStar (Str2Reg "ii"))) (RegexConcat (RegexStar (RegexStar (Str2Reg "gg"))) (RegexConcat (RegexPlus (RegexUnion (Str2Reg "e") (Str2Reg "fff"))) (RegexConcat (RegexPlus (RegexStar (Str2Reg "dd"))) (RegexConcat (RegexStar (RegexUnion (Str2Reg "b") (Str2Reg "c"))) (RegexConcat (RegexStar (RegexStar (Str2Reg "a"))) (RegexConcat (RegexStar (RegexPlus (Str2Reg "99"))) (RegexConcat (RegexUnion (RegexStar (Str2Reg "6")) (RegexUnion (Str2Reg "77") (Str2Reg "88"))) (RegexConcat (RegexStar (RegexPlus (Str2Reg "55"))) (RegexConcat (RegexUnion (RegexPlus (Str2Reg "2")) (RegexUnion (Str2Reg "33") (Str2Reg "44"))) (RegexConcat (RegexStar (RegexStar (Str2Reg "11"))) (RegexConcat (RegexUnion (RegexUnion (Str2Reg "}}") (Str2Reg "~~")) (RegexStar (Str2Reg "000"))) (RegexConcat (RegexPlus (RegexStar (Str2Reg "||"))) (RegexConcat (RegexStar (RegexUnion (Str2Reg "``") (Str2Reg "{{"))) (RegexConcat (RegexPlus (RegexStar (Str2Reg "___"))) (RegexConcat (RegexPlus (RegexStar (Str2Reg "^^^"))) (RegexConcat (RegexStar (RegexStar (Str2Reg "]]"))) (RegexConcat (RegexPlus (RegexPlus (Str2Reg "\\"))) (RegexConcat (RegexPlus (RegexUnion (Str2Reg "@") (Str2Reg "[["))) (RegexConcat (RegexStar (RegexStar (Str2Reg "???"))) (RegexConcat (RegexPlus (RegexUnion (Str2Reg "==") (Str2Reg ">"))) (RegexConcat (RegexStar (RegexPlus (Str2Reg "<<"))) (RegexConcat (RegexPlus (RegexUnion (Str2Reg "::") (Str2Reg ";"))) (RegexConcat (RegexStar (RegexStar (Str2Reg "///"))) (RegexConcat (RegexUnion (RegexPlus (Str2Reg ",,,")) (RegexUnion (Str2Reg "---") (Str2Reg ".."))) (RegexConcat (RegexPlus (RegexPlus (Str2Reg "+"))) (RegexConcat (RegexUnion (RegexUnion (Str2Reg "(((") (Str2Reg ")")) (RegexPlus (Str2Reg "*"))) (RegexConcat (RegexUnion (RegexUnion (Str2Reg "%%") (Str2Reg "&&")) (RegexPlus (Str2Reg "''"))) (RegexConcat (RegexStar (RegexStar (Str2Reg "$"))) (RegexConcat (RegexUnion (RegexPlus (Str2Reg "\"\"")) (RegexStar (Str2Reg "##"))) (RegexConcat (RegexUnion (RegexUnion (Str2Reg "YY") (Str2Reg "ZZZ")) (RegexStar (Str2Reg "!!"))) (RegexConcat (RegexPlus (RegexUnion (Str2Reg "WWW") (Str2Reg "X"))) (RegexConcat (RegexUnion (RegexPlus (Str2Reg "T")) (RegexUnion (Str2Reg "UUU") (Str2Reg "V"))) (RegexConcat (RegexStar (RegexPlus (Str2Reg "SS"))) (RegexConcat (RegexUnion (RegexStar (Str2Reg "QQQ")) (RegexPlus (Str2Reg "RRR"))) (RegexConcat (RegexUnion (RegexPlus (Str2Reg "NNN")) (RegexUnion (Str2Reg "OO") (Str2Reg "P"))) (RegexConcat (RegexStar (RegexStar (Str2Reg "MM"))) (RegexConcat (RegexUnion (RegexStar (Str2Reg "KKK")) (RegexStar (Str2Reg "L"))) (RegexConcat (RegexPlus (RegexUnion (Str2Reg "I") (Str2Reg "J"))) (RegexConcat (RegexStar (RegexUnion (Str2Reg "GG") (Str2Reg "H"))) (RegexConcat (RegexStar (RegexPlus (Str2Reg "FF"))) (RegexConcat (RegexUnion (RegexPlus (Str2Reg "D")) (RegexPlus (Str2Reg "EEE"))) (RegexConcat (RegexStar (RegexUnion (Str2Reg "BB") (Str2Reg "C"))) (RegexConcat (RegexPlus (RegexStar (Str2Reg "A"))) (RegexConcat (RegexUnion (RegexStar (Str2Reg "yyy")) (RegexStar (Str2Reg "zzz"))) (RegexConcat (RegexPlus (RegexPlus (Str2Reg "x"))) (RegexConcat (RegexStar (RegexStar (Str2Reg "ww"))) (RegexConcat (RegexUnion (RegexUnion (Str2Reg "ss") (Str2Reg "t")) (RegexUnion (Str2Reg "uuu") (Str2Reg "v"))) (RegexConcat (RegexUnion (RegexPlus (Str2Reg "q")) (RegexStar (Str2Reg "r"))) (RegexConcat (RegexUnion (RegexStar (Str2Reg "ooo")) (RegexPlus (Str2Reg "pp"))) (RegexConcat (RegexUnion (RegexUnion (Str2Reg "l") (Str2Reg "mm")) (RegexPlus (Str2Reg "nn"))) (RegexConcat (RegexPlus (RegexStar (Str2Reg "kkk"))) (RegexConcat (RegexPlus (RegexUnion (Str2Reg "i") (Str2Reg "jj"))) (RegexConcat (RegexStar (RegexPlus (Str2Reg "h"))) (RegexConcat (RegexPlus (RegexUnion (Str2Reg "f") (Str2Reg "gg"))) (RegexConcat (RegexPlus (RegexUnion (Str2Reg "ddd") (Str2Reg "eee"))) (RegexConcat (RegexStar (RegexUnion (Str2Reg "bb") (Str2Reg "ccc"))) (RegexConcat (RegexPlus (RegexStar (Str2Reg "aa"))) (RegexConcat (RegexPlus (RegexPlus (Str2Reg "999"))) (RegexConcat (RegexUnion (RegexUnion (Str2Reg "555") (Str2Reg "6")) (RegexUnion (Str2Reg "77") (Str2Reg "888"))) (RegexConcat (RegexPlus (RegexStar (Str2Reg "4"))) (RegexConcat (RegexStar (RegexStar (Str2Reg "3"))) (RegexConcat (RegexUnion (RegexPlus (Str2Reg "111")) (RegexPlus (Str2Reg "2"))) (RegexConcat (RegexUnion (RegexPlus (Str2Reg "~~~")) (RegexStar (Str2Reg "00"))) (RegexConcat (RegexUnion (RegexStar (Str2Reg "|||")) (RegexPlus (Str2Reg "}}"))) (RegexConcat (RegexPlus (RegexUnion (Str2Reg "`") (Str2Reg "{"))) (RegexConcat (RegexStar (RegexPlus (Str2Reg "_"))) (RegexConcat (RegexStar (RegexUnion (Str2Reg "]]]") (Str2Reg "^^^"))) (RegexConcat (RegexStar (RegexUnion (Str2Reg "[") (Str2Reg "\\\\"))) (RegexConcat (RegexUnion (RegexUnion (Str2Reg ">>>") (Str2Reg "??")) (RegexPlus (Str2Reg "@@@"))) (RegexConcat (RegexUnion (RegexPlus (Str2Reg "<<")) (RegexStar (Str2Reg "=="))) (RegexConcat (RegexStar (RegexPlus (Str2Reg ";;;"))) (RegexConcat (RegexUnion (RegexUnion (Str2Reg "..") (Str2Reg "//")) (RegexPlus (Str2Reg ":::"))) (RegexConcat (RegexUnion (RegexUnion (Str2Reg "+") (Str2Reg ",,,")) (RegexStar (Str2Reg "-"))) (RegexConcat (RegexUnion (RegexPlus (Str2Reg "))")) (RegexStar (Str2Reg "*"))) (RegexConcat (RegexStar (RegexPlus (Str2Reg "((("))) (RegexConcat (RegexStar (RegexStar (Str2Reg "'''"))) (RegexConcat (RegexStar (RegexPlus (Str2Reg "&&&"))) (RegexConcat (RegexPlus (RegexStar (Str2Reg "%"))) (RegexConcat (RegexUnion (RegexStar (Str2Reg "#")) (RegexStar (Str2Reg "$"))) (RegexConcat (RegexStar (RegexPlus (Str2Reg "\"\"\""))) (RegexConcat (RegexUnion (RegexUnion (Str2Reg "XX") (Str2Reg "YYY")) (RegexUnion (Str2Reg "ZZZ") (Str2Reg "!"))) (RegexConcat (RegexStar (RegexStar (Str2Reg "W"))) (RegexConcat (RegexUnion (RegexStar (Str2Reg "TT")) (RegexUnion (Str2Reg "UUU") (Str2Reg "V"))) (RegexConcat (RegexUnion (RegexUnion (Str2Reg "QQ") (Str2Reg "RRR")) (RegexStar (Str2Reg "SS"))) (RegexConcat (RegexUnion (RegexUnion (Str2Reg "M") (Str2Reg "NN")) (RegexUnion (Str2Reg "O") (Str2Reg "P"))) (RegexConcat (RegexPlus (RegexPlus (Str2Reg "LLL"))) (RegexConcat (RegexPlus (RegexUnion (Str2Reg "JJJ") (Str2Reg "K"))) (RegexConcat (RegexStar (RegexStar (Str2Reg "III"))) (RegexConcat (RegexStar (RegexUnion (Str2Reg "GGG") (Str2Reg "H"))) (RegexConcat (RegexPlus (RegexPlus (Str2Reg "FF"))) (RegexConcat (RegexPlus (RegexStar (Str2Reg "EE"))) (RegexConcat (RegexUnion (RegexPlus (Str2Reg "C")) (RegexPlus (Str2Reg "DD"))) (RegexConcat (RegexUnion (RegexPlus (Str2Reg "AA")) (RegexStar (Str2Reg "BB"))) (RegexConcat (RegexPlus (RegexUnion (Str2Reg "y") (Str2Reg "zzz"))) (RegexConcat (RegexPlus (RegexPlus (Str2Reg "x"))) (RegexConcat (RegexStar (RegexPlus (Str2Reg "ww"))) (RegexConcat (RegexUnion (RegexUnion (Str2Reg "ttt") (Str2Reg "uu")) (RegexStar (Str2Reg "vv"))) (RegexConcat (RegexPlus (RegexPlus (Str2Reg "sss"))) (RegexConcat (RegexStar (RegexStar (Str2Reg "rrr"))) (RegexConcat (RegexStar (RegexPlus (Str2Reg "q"))) (RegexConcat (RegexUnion (RegexPlus (Str2Reg "n")) (RegexUnion (Str2Reg "o") (Str2Reg "p"))) (RegexConcat (RegexUnion (RegexStar (Str2Reg "k")) (RegexUnion (Str2Reg "ll") (Str2Reg "mmm"))) (RegexConcat (RegexStar (RegexUnion (Str2Reg "iii") (Str2Reg "jj"))) (RegexConcat (RegexUnion (RegexUnion (Str2Reg "e") (Str2Reg "ff")) (RegexUnion (Str2Reg "ggg") (Str2Reg "hh"))) (RegexConcat (RegexUnion (RegexUnion (Str2Reg "bb") (Str2Reg "ccc")) (RegexStar (Str2Reg "d"))) (RegexConcat (RegexUnion (RegexStar (Str2Reg "888")) (RegexUnion (Str2Reg "99") (Str2Reg "aa"))) (RegexConcat (RegexPlus (RegexPlus (Str2Reg "77"))) (RegexConcat (RegexPlus (RegexPlus (Str2Reg "6"))) (RegexConcat (RegexPlus (RegexPlus (Str2Reg "55"))) (RegexConcat (RegexStar (RegexStar (Str2Reg "4"))) (RegexUnion (RegexUnion (Str2Reg "00") (Str2Reg "111")) (RegexUnion (Str2Reg "222") (Str2Reg "333")))))))))))))))))))))))))))))))))))))))))))))))))))))))))))))))))))))))))))))))))))))))))))))))))))))))))))))))))))))))))))))))))))))))))))))))))
(check-sat)